c Generated map
c Size: 9 * 9, weights in range: 1 to 10, walls: True, with ratio 0.1
c dim 5 of 7
c
p sp 81 116
c graph contains 81 nodes and 116 arcs
c
a 1 10 1
a 10 1 1
a 1 2 7
a 2 1 7
a 2 11 5
a 11 2 5
a 2 3 5
a 3 2 5
a 3 12 2
a 12 3 2
a 3 4 4
a 4 3 4
a 4 13 3
a 13 4 3
a 4 5 2
a 5 4 2
a 5 6 1
a 6 5 1
a 6 15 9
a 15 6 9
a 6 7 10
a 7 6 10
a 7 16 7
a 16 7 7
a 9 18 1
a 18 9 1
a 10 19 6
a 19 10 6
a 10 11 9
a 11 10 9
a 11 12 9
a 12 11 9
a 12 21 5
a 21 12 5
a 12 13 2
a 13 12 2
a 13 22 1
a 22 13 1
a 15 16 3
a 16 15 3
a 16 25 10
a 25 16 10
a 16 17 9
a 17 16 9
a 17 26 5
a 26 17 5
a 17 18 7
a 18 17 7
a 18 27 3
a 27 18 3
a 19 28 7
a 28 19 7
a 21 30 6
a 30 21 6
a 21 22 9
a 22 21 9
a 22 31 6
a 31 22 6
a 22 23 3
a 23 22 3
a 23 32 3
a 32 23 3
a 25 34 1
a 34 25 1
a 25 26 6
a 26 25 6
a 26 35 8
a 35 26 8
a 26 27 10
a 27 26 10
a 27 36 5
a 36 27 5
a 28 37 1
a 37 28 1
a 28 29 4
a 29 28 4
a 29 38 10
a 38 29 10
a 29 30 7
a 30 29 7
a 30 39 7
a 39 30 7
a 30 31 7
a 31 30 7
a 31 40 9
a 40 31 9
a 31 32 9
a 32 31 9
a 32 41 9
a 41 32 9
a 32 33 3
a 33 32 3
a 33 42 7
a 42 33 7
a 33 34 10
a 34 33 10
a 34 43 9
a 43 34 9
a 34 35 4
a 35 34 4
a 35 44 4
a 44 35 4
a 35 36 4
a 36 35 4
a 36 45 5
a 45 36 5
a 37 38 8
a 38 37 8
a 38 47 4
a 47 38 4
a 38 39 2
a 39 38 2
a 39 48 4
a 48 39 4
a 39 40 10
a 40 39 10
a 40 49 9
a 49 40 9
a 40 41 3
a 41 40 3
a 41 50 10
a 50 41 10
a 41 42 10
a 42 41 10
a 42 51 4
a 51 42 4
a 42 43 9
a 43 42 9
a 43 52 9
a 52 43 9
a 43 44 10
a 44 43 10
a 44 45 7
a 45 44 7
a 45 54 2
a 54 45 2
a 47 56 6
a 56 47 6
a 47 48 1
a 48 47 1
a 48 57 8
a 57 48 8
a 48 49 4
a 49 48 4
a 49 58 5
a 58 49 5
a 49 50 9
a 50 49 9
a 50 59 10
a 59 50 10
a 50 51 8
a 51 50 8
a 51 60 2
a 60 51 2
a 51 52 10
a 52 51 10
a 52 61 7
a 61 52 7
a 54 63 3
a 63 54 3
a 55 64 1
a 64 55 1
a 55 56 10
a 56 55 10
a 56 65 7
a 65 56 7
a 56 57 9
a 57 56 9
a 57 66 9
a 66 57 9
a 57 58 6
a 58 57 6
a 58 67 8
a 67 58 8
a 58 59 6
a 59 58 6
a 59 68 3
a 68 59 3
a 59 60 9
a 60 59 9
a 60 69 2
a 69 60 2
a 60 61 4
a 61 60 4
a 61 70 5
a 70 61 5
a 61 62 1
a 62 61 1
a 62 71 6
a 71 62 6
a 62 63 3
a 63 62 3
a 63 72 7
a 72 63 7
a 64 73 4
a 73 64 4
a 64 65 1
a 65 64 1
a 65 66 3
a 66 65 3
a 66 75 8
a 75 66 8
a 66 67 6
a 67 66 6
a 67 76 3
a 76 67 3
a 67 68 7
a 68 67 7
a 68 69 3
a 69 68 3
a 69 78 7
a 78 69 7
a 69 70 6
a 70 69 6
a 70 79 7
a 79 70 7
a 70 71 4
a 71 70 4
a 71 80 3
a 80 71 3
a 71 72 8
a 72 71 8
a 72 81 2
a 81 72 2
a 75 76 8
a 76 75 8
a 78 79 4
a 79 78 4
a 79 80 1
a 80 79 1
a 80 81 3
a 81 80 3
